pywr_glpk_debug.lp
\* Problem: Unknown *\

Minimize
 obj: 0 x_1

Subject To
 r_1: + x_1 >= 75
 r_2: + x_1 >= 0
 r_3: - x_1 - ~r_3 = -25

Bounds
 0 <= ~r_3 <= 100

End
