pywr_glpk_debug.mps
* Problem:
* Class:      LP
* Rows:       3
* Columns:    1
* Non-zeros:  3
* Format:     Free MPS
*
NAME
ROWS
 N R0000000
 G R0000001
 G R0000002
 E R0000003
COLUMNS
 C0000001 R0000003 -1 R0000002 1
 C0000001 R0000001 1
RHS
 RHS1 R0000001 75 R0000003 -25
RANGES
 RNG1 R0000003 100
ENDATA
